c read Graph
c width = 379
c time = 484 ms
c width = 20
c time = 670 ms
c width = 19
c time = 3607 ms
c width = 18
c time = 6873 ms
c width = 17
c time = 10171 ms
c width = 16
c time = 18284 ms
c width = 15
c time = 32536 ms
c width = 15
c time = 35141 ms
s td 423 16 450
b 1 29 30
b 2 421 422
b 3 1 2 3
b 4 1 3 32
b 5 25 27 58 59
b 6 25 57 58 59
b 7 25 57 59 89
b 8 57 87 88 89
b 9 362 392 393 424
b 10 362 393 394 424
b 11 362 394 424 426
b 12 25 55 56 57
b 13 362 363 364 394
b 14 394 395 396 426
b 15 3 5 32 34
b 16 5 7 32 34 36
b 17 7 9 32 34 36 38
b 18 9 11 32 34 36 38 40
b 19 11 13 32 34 36 38 40 42
b 20 13 17 32 34 36 38 40 42 44 46
b 21 13 15 17 46
b 22 17 32 34 36 38 40 42 44 46 78 80 112 144 176 179 208
b 23 32 34 36 38 40 42 44 46 76 78 80 112 144 176 179 208
b 24 32 34 36 38 40 42 44 74 76 78 80 112 144 176 179 208
b 25 32 34 36 38 40 41 42 74 76 78 80 112 144 176 179 208
b 26 32 34 36 38 39 40 41 74 76 78 80 112 144 176 179 208
b 27 32 34 36 37 38 39 41 74 76 78 80 112 144 176 179 208
b 28 32 34 35 36 37 39 41 74 76 78 80 112 144 176 179 208
b 29 32 34 35 37 39 41 64 74 76 78 80 112 144 176 179 208
b 30 32 35 37 39 41 62 64 74 76 78 80 112 144 176 179 208
b 31 35 37 39 41 62 64 66 74 76 78 80 112 144 176 179 208
b 32 37 39 41 62 64 66 68 74 76 78 80 112 144 176 179 208
b 33 39 41 62 64 66 68 70 74 76 78 80 112 144 176 179 208
b 34 41 62 64 66 68 70 72 74 76 78 80 112 144 176 179 208
b 35 62 64 66 68 70 72 74 76 78 79 80 112 144 176 179 208
b 36 62 64 66 68 70 72 74 76 78 79 108 112 144 176 179 208
b 37 62 64 66 68 70 72 74 76 79 106 108 112 144 176 179 208
b 38 62 64 66 68 70 72 73 74 79 106 108 112 144 176 179 208
b 39 62 64 66 68 70 71 72 73 79 106 108 112 144 176 179 208
b 40 62 64 66 68 69 70 71 73 79 106 108 112 144 176 179 208
b 41 62 64 66 67 68 69 71 73 79 106 108 112 144 176 179 208
b 42 62 64 65 66 67 69 71 73 79 106 108 112 144 176 179 208
b 43 62 63 64 65 67 69 71 73 79 106 108 112 144 176 179 208
b 44 62 63 65 67 69 71 73 79 92 106 108 112 144 176 179 208
b 45 63 65 67 69 71 73 79 92 94 106 108 112 144 176 179 208
b 46 65 67 69 71 73 79 92 94 96 106 108 112 144 176 179 208
b 47 67 69 71 73 79 92 94 96 98 106 108 112 144 176 179 208
b 48 69 71 73 79 92 94 96 98 100 106 108 112 144 176 179 208
b 49 71 73 79 92 94 96 98 100 102 106 108 112 144 176 179 208
b 50 73 79 92 94 96 98 100 102 104 106 108 112 144 176 179 208
b 51 79 92 94 96 98 100 102 104 106 108 110 112 144 176 179 208
b 52 92 94 96 98 100 102 104 106 108 110 111 112 144 176 179 208
b 53 92 94 96 98 100 102 104 106 108 109 110 111 144 176 179 208
b 54 92 94 96 98 100 102 104 106 108 109 111 138 144 176 179 208
b 55 92 94 96 98 100 102 104 105 106 109 111 138 144 176 179 208
b 56 92 94 96 98 100 102 103 104 105 109 111 138 144 176 179 208
b 57 92 94 96 98 100 101 102 103 105 109 111 138 144 176 179 208
b 58 92 94 96 98 99 100 101 103 105 109 111 138 144 176 179 208
b 59 92 94 96 97 98 99 101 103 105 109 111 138 144 176 179 208
b 60 92 94 95 96 97 99 101 103 105 109 111 138 144 176 179 208
b 61 92 94 95 97 99 101 103 105 109 111 126 138 144 176 179 208
b 62 92 94 97 99 101 103 105 109 111 126 128 138 144 176 179 208
b 63 92 94 99 101 103 105 109 111 126 128 130 138 144 176 179 208
b 64 92 94 101 103 105 109 111 126 128 130 132 138 144 176 179 208
b 65 92 94 103 105 109 111 126 128 130 132 134 138 144 176 179 208
b 66 92 94 105 109 111 126 128 130 132 134 136 138 144 176 179 208
b 67 92 94 109 111 126 128 130 132 134 136 138 140 144 176 179 208
b 68 92 94 111 126 128 130 132 134 136 138 140 142 144 176 179 208
b 69 92 94 126 128 130 132 134 136 138 140 142 144 174 176 179 208
b 70 92 94 126 128 130 132 134 136 138 140 141 142 174 176 179 208
b 71 92 94 126 128 130 132 134 136 138 139 140 141 174 176 179 208
b 72 92 94 126 128 130 132 134 136 137 138 139 141 174 176 179 208
b 73 92 94 126 128 130 132 134 135 136 137 139 141 174 176 179 208
b 74 92 94 126 128 130 132 133 134 135 137 139 141 174 176 179 208
b 75 92 94 126 128 130 131 132 133 135 137 139 141 174 176 179 208
b 76 92 94 126 128 129 130 131 133 135 137 139 141 174 176 179 208
b 77 92 94 126 127 128 129 131 133 135 137 139 141 174 176 179 208
b 78 92 94 126 127 129 131 133 135 137 139 141 158 174 176 179 208
b 79 92 94 126 129 131 133 135 137 139 141 158 160 174 176 179 208
b 80 92 94 126 131 133 135 137 139 141 158 160 162 174 176 179 208
b 81 92 94 126 133 135 137 139 141 158 160 162 164 174 176 179 208
b 82 92 94 126 135 137 139 141 158 160 162 164 166 174 176 179 208
b 83 92 94 126 137 139 141 158 160 162 164 166 168 174 176 179 208
b 84 92 94 126 139 141 158 160 162 164 166 168 170 174 176 179 208
b 85 92 94 126 141 158 160 162 164 166 168 170 172 174 176 179 208
b 86 92 94 126 158 160 162 164 166 168 170 172 174 176 179 206 208
b 87 92 94 126 158 160 162 164 166 168 170 172 173 174 179 206 208
b 88 92 94 126 158 160 162 164 166 168 170 171 172 173 179 206 208
b 89 92 94 126 158 160 162 164 166 168 169 170 171 173 179 206 208
b 90 92 94 126 158 160 162 164 166 167 168 169 171 173 179 206 208
b 91 92 94 126 158 160 162 164 165 166 167 169 171 173 179 206 208
b 92 92 94 126 158 160 162 163 164 165 167 169 171 173 179 206 208
b 93 92 94 126 158 160 161 162 163 165 167 169 171 173 179 206 208
b 94 92 94 126 158 160 161 163 165 167 169 171 173 179 192 206 208
b 95 92 94 126 158 160 163 165 167 169 171 173 179 192 194 206 208
b 96 92 94 126 158 160 165 167 169 171 173 179 192 194 196 206 208
b 97 92 94 126 158 160 167 169 171 173 179 192 194 196 198 206 208
b 98 92 94 126 158 160 169 171 173 179 192 194 196 198 200 206 208
b 99 92 94 126 158 160 171 173 179 192 194 196 198 200 202 206 208
b 100 92 94 126 158 160 173 179 192 194 196 198 200 202 204 206 208
b 101 92 94 126 158 160 179 192 194 196 198 200 202 204 206 208 239
b 102 92 94 126 158 160 192 194 196 198 200 202 204 206 208 238 239
b 103 92 94 126 158 160 192 194 196 198 200 202 204 205 206 238 239
b 104 92 94 126 158 160 192 194 196 198 200 202 203 204 205 238 239
b 105 92 94 126 158 160 192 194 196 198 200 201 202 203 205 238 239
b 106 92 94 126 158 160 192 194 196 198 199 200 201 203 205 238 239
b 107 92 94 126 158 160 192 194 196 197 198 199 201 203 205 238 239
b 108 92 94 126 158 160 192 194 195 196 197 199 201 203 205 238 239
b 109 92 94 126 158 160 192 193 194 195 197 199 201 203 205 238 239
b 110 92 94 126 158 160 192 193 195 197 199 201 203 205 224 238 239
b 111 92 94 126 158 160 192 195 197 199 201 203 205 224 226 238 239
b 112 92 94 126 158 160 192 197 199 201 203 205 224 226 228 238 239
b 113 92 94 126 158 160 192 199 201 203 205 224 226 228 230 238 239
b 114 92 94 126 158 160 192 201 203 205 224 226 228 230 232 238 239
b 115 92 94 126 158 160 192 203 205 224 226 228 230 232 234 238 239
b 116 92 94 126 158 160 192 205 224 226 228 230 232 234 236 238 239
b 117 92 94 126 158 160 192 224 226 228 230 232 234 236 237 238 239
b 118 92 94 126 158 160 192 224 226 228 230 232 234 235 236 237 239
b 119 92 94 126 158 160 192 224 226 228 230 232 233 234 235 237 239
b 120 92 94 126 158 160 192 224 226 228 230 231 232 233 235 237 239
b 121 92 94 126 158 160 192 224 226 228 229 230 231 233 235 237 239
b 122 92 94 126 158 160 192 224 226 227 228 229 231 233 235 237 239
b 123 92 94 126 158 160 192 224 225 226 227 229 231 233 235 237 239
b 124 92 94 126 158 160 192 224 225 227 229 231 233 235 237 239 256
b 125 92 94 126 158 160 192 224 227 229 231 233 235 237 239 256 258
b 126 92 94 126 158 160 192 224 229 231 233 235 237 239 256 258 260
b 127 92 94 126 158 160 192 224 231 233 235 237 239 256 258 260 262
b 128 92 94 126 158 160 192 224 233 235 237 239 256 258 260 262 264
b 129 92 94 126 158 160 192 224 235 237 239 256 258 260 262 264 266
b 130 92 94 126 158 160 192 224 237 239 256 258 260 262 264 266 268
b 131 92 94 126 158 160 192 224 239 256 258 260 262 264 266 268 269
b 132 92 94 126 158 160 192 224 256 258 260 262 264 266 267 268 269
b 133 92 94 126 158 160 192 224 256 258 260 262 264 265 266 267 269
b 134 92 94 126 158 160 192 224 256 258 260 262 264 265 267 269 294
b 135 92 94 126 158 160 192 224 256 258 260 261 262 265 267 269 294
b 136 92 94 126 158 160 192 224 256 258 259 260 261 265 267 269 294
b 137 92 94 126 158 160 192 224 256 257 258 259 261 265 267 269 294
b 138 92 94 126 158 160 192 224 256 257 259 261 265 267 269 288 294
b 139 92 94 126 158 160 192 224 256 259 261 265 267 269 288 290 294
b 140 92 94 126 158 160 192 224 256 261 265 267 269 288 290 292 294
b 141 92 94 126 158 160 192 224 256 265 267 269 288 290 292 294 296
b 142 92 94 126 158 160 192 224 256 267 269 288 290 292 294 296 298
b 143 92 94 126 158 160 192 224 256 269 288 290 292 294 296 298 299
b 144 92 94 126 158 160 192 224 256 288 290 292 294 296 298 299 328
b 145 296 297 298 299 328
b 146 92 94 126 158 160 192 224 256 288 290 292 294 296 299 326 328
b 147 92 94 126 158 160 192 224 256 288 290 292 294 299 324 326 328
b 148 92 94 126 158 160 192 224 256 288 290 292 299 322 324 326 328
b 149 92 94 126 158 160 192 224 256 288 290 299 320 322 324 326 328
b 150 288 290 299 320 322 324 326 328
b 151 288 289 290 320
b 152 92 94 126 158 160 192 224 256 288 299 320 322 324 326 328 329
b 153 92 94 126 158 160 192 224 256 288 320 322 324 326 328 329 358
b 154 92 94 126 158 160 192 224 256 288 320 322 324 326 329 356 358
b 155 92 94 126 158 160 192 224 256 288 320 322 324 329 354 356 358
b 156 92 94 126 158 160 192 224 256 288 320 322 329 354 356 358 359
b 157 92 94 126 158 160 192 224 256 288 320 322 354 356 358 359 388
b 158 356 357 358 388
b 159 92 94 126 158 160 192 224 256 288 320 322 352 354 356 359 388
b 160 92 94 126 158 160 192 224 256 288 320 352 354 356 359 386 388
b 161 92 94 126 158 160 192 224 256 288 320 352 354 359 384 386 388
b 162 352 353 354 384
b 163 92 94 126 158 160 192 224 256 288 320 352 359 384 386 388 419
b 164 92 94 126 158 160 192 224 256 288 320 352 384 386 388 418 419
b 165 92 94 126 158 160 192 224 256 288 320 352 384 386 418 419 448
b 166 92 94 126 158 160 192 224 256 288 320 352 384 386 416 418 448
b 167 92 94 126 158 160 192 224 256 288 320 352 384 414 416 444 448
b 168 414 416 444 446 448
b 169 414 415 416 446
b 170 92 94 126 158 160 192 224 256 288 320 352 383 384 414 444
b 171 92 94 126 158 160 192 224 256 288 320 352 382 383 414 444
b 172 92 94 126 158 160 192 224 256 288 320 351 352 382 414 444
b 173 92 94 126 158 160 192 224 256 288 320 350 351 382 414 444
b 174 92 94 126 158 160 192 224 256 288 318 320 350 382 414 444
b 175 318 319 320 350
b 176 92 94 126 158 160 190 192 224 256 288 318 350 382 414 444
b 177 158 159 160 190
b 178 92 94 126 158 190 192 222 224 256 288 318 350 382 414 444
b 179 190 191 192 222
b 180 92 94 126 158 190 222 224 254 256 288 318 350 382 414 444
b 181 222 223 224 254
b 182 92 94 126 158 190 222 254 256 284 288 316 318 350 382 414 444
b 183 92 94 126 158 190 222 252 254 284 288 316 318 350 382 414 444
b 184 92 94 126 158 190 220 222 252 284 288 316 318 350 382 414 444
b 185 220 221 222 252
b 186 92 94 126 158 190 220 252 284 316 318 348 350 382 414 444
b 187 92 94 126 158 190 220 252 284 316 348 350 380 382 414 444
b 188 348 349 350 380
b 189 92 94 126 158 190 220 252 284 316 348 380 382 410 414 440 444
b 190 92 94 126 158 190 220 252 284 316 348 378 380 410 414 440 444
b 191 92 94 126 158 190 220 252 284 316 346 348 378 410 414 440 444
b 192 92 94 126 158 190 220 252 284 316 346 378 410 440 444
b 193 346 347 348 378
b 194 92 94 126 158 190 220 252 284 316 346 376 378 406 410 436 440
b 195 376 378 406 408 410 436 440
b 196 376 377 378 408
b 197 406 408 436 438 440
b 198 406 407 408 438
b 199 408 409 410 440
b 200 92 94 126 156 158 186 190 218 220 252 284 316 346 376 406 436
b 201 156 158 186 188 190 218 220
b 202 156 157 158 188
b 203 186 187 188 218
b 204 188 189 190 220
b 205 92 94 126 156 186 218 220 250 252 284 316 346 376 406 436
b 206 92 94 126 152 156 184 186 218 250 252 284 316 346 376 406 436
b 207 92 94 126 152 154 156 184 186
b 208 154 155 156 186
b 209 152 153 154 184
b 210 92 94 124 126 152 154 156
b 211 124 125 126 156
b 212 92 123 124 152 154
b 213 92 122 123 152
b 214 92 93 94 124
b 215 218 219 220 250
b 216 378 379 380 410
b 217 380 382 410 412 414 440 444
b 218 412 413 414 444
b 219 380 381 382 412
b 220 410 412 440 442 444
b 221 410 411 412 442
b 222 316 317 318 348
b 223 252 253 254 284
b 224 254 256 284 286 288 316 318
b 225 286 287 288 318
b 226 284 285 286 316
b 227 254 255 256 286
b 228 384 385 386 416
b 229 416 417 418 448
b 230 386 387 388 418
b 231 359 388 389 419
b 232 354 355 356 386
b 233 320 321 322 352
b 234 322 323 324 354
b 235 324 325 326 356
b 236 326 327 328 358
b 237 290 291 292 322
b 238 292 293 294 324
b 239 294 295 296 326
b 240 262 263 264 294
b 241 206 207 208 238
b 242 179 208 209 239
b 243 174 175 176 206
b 244 142 143 144 174
b 245 106 107 108 138
b 246 74 75 76 106
b 247 76 77 78 108
b 248 32 33 34 64
b 249 42 43 44 74
b 250 44 45 46 76
b 251 17 46 50 78 80 112 144 176 179 208
b 252 17 50 80 82 112 144 176 179 208
b 253 17 50 82 112 114 144 176 179 208
b 254 112 113 114 144
b 255 17 50 82 114 144 146 176 179 208
b 256 144 145 146 176
b 257 17 50 82 114 146 148 176 179 208
b 258 146 148 176 178 179 208
b 259 176 177 178 208
b 260 146 147 148 178
b 261 17 21 50 82 114 146 148 179
b 262 21 50 52 82 114 146 148 179
b 263 50 51 52 82
b 264 21 52 82 84 114 146 148 179
b 265 82 83 84 114
b 266 21 52 84 114 116 146 148 179
b 267 21 52 84 116 119 148 179
b 268 119 148 149 179
b 269 21 52 84 87 116 119 148
b 270 87 116 117 119 148
b 271 87 117 118 119
b 272 21 52 54 84 87 116 119
b 273 21 54 55 84 87 116 119
b 274 55 84 85 87 116
b 275 55 85 86 87
b 276 21 25 54 55 87 119
b 277 21 23 25 54
b 278 25 55 87 89 119
b 279 25 55 57 87 89
b 280 52 53 54 84
b 281 114 115 116 146
b 282 17 19 21 50
b 283 80 81 82 112
b 284 17 46 48 50 78 80
b 285 46 47 48 78
b 286 48 49 50 80
b 287 272 274 276 278 280 312 314 346 374 376 406 436
b 288 314 315 316 346
b 289 152 184 186 216 218 250 272 274 276 278 280
b 290 152 184 186 218 250 252 284 314 316 346 376 406 436
b 291 152 184 186 218 250 272 274 276 278 280 312 314 346 376 406 436
b 292 152 184 186 218 250 252 280 284 312 314 346 376 406 436
b 293 250 252 280 282 284 312 314
b 294 250 252 280 284 312 314 346 376 406 436
b 295 250 251 252 282
b 296 282 283 284 314
b 297 280 281 282 312
b 298 374 375 376 406
b 299 272 274 276 278 280 312 314 342 346 374 376 406 436
b 300 312 314 342 344 346 374 376
b 301 312 313 314 344
b 302 342 343 344 374
b 303 344 345 346 376
b 304 272 274 276 278 280 308 312 340 342 374 406 436
b 305 278 280 308 310 312 340 342
b 306 308 309 310 340
b 307 278 279 280 310
b 308 310 311 312 342
b 309 276 277 278 308
b 310 272 274 276 308 340 342 372 374 406 436
b 311 340 341 342 372
b 312 272 274 276 308 340 372 374 402 406 432 436
b 313 372 374 402 404 406 432 436
b 314 372 373 374 404
b 315 402 404 432 434 436
b 316 402 403 404 434
b 317 404 405 406 436
b 318 272 274 276 308 340 370 372 402 432
b 319 272 274 276 308 338 340 370 402 432
b 320 338 339 340 370
b 321 272 274 276 306 308 338 370 402 432
b 322 274 275 276 306
b 323 272 274 306 338 370 400 402 432
b 324 272 274 306 338 368 370 400 432
b 325 272 274 306 336 338 368 400 432
b 326 272 274 304 306 336 368 400 432
b 327 304 305 306 336
b 328 272 304 336 368 398 400 428 432
b 329 272 304 336 366 368 398 428
b 330 366 367 368 398
b 331 272 304 334 336 366 398 428
b 332 272 304 332 334 366 398 428
b 333 272 303 304 332 334
b 334 272 302 303 332
b 335 332 334 366 396 398 428
b 336 332 334 364 366 396 428
b 337 332 333 334 364
b 338 364 365 366 396
b 339 332 364 396 426 428
b 340 332 364 394 396 426
b 341 332 362 364 394 426
b 342 396 397 398 428
b 343 334 335 336 366
b 344 398 400 428 430 432
b 345 398 399 400 430
b 346 272 273 274 304
b 347 336 337 338 368
b 348 368 369 370 400
b 349 400 401 402 432
b 350 306 307 308 338
b 351 370 371 372 402
b 352 184 185 186 216
b 353 152 184 216 218 246 250 272 274 276 278 280
b 354 216 218 246 248 250 278 280
b 355 248 249 250 280
b 356 216 217 218 248
b 357 246 247 248 278
b 358 152 184 216 244 246 272 274 276
b 359 152 184 214 216 244 246 272 274
b 360 214 215 216 246
b 361 152 184 212 214 244 272 274
b 362 152 183 184 212 214
b 363 152 182 183 212
b 364 212 243 244 272 274
b 365 212 242 243 272
b 366 212 213 214 244
b 367 244 245 246 276
b 368 446 447 448
b 369 444 445 446
b 370 442 443 444
b 371 440 441 442
b 372 438 439 440
b 373 436 437 438
b 374 434 435 436
b 375 432 433 434
b 376 430 431 432
b 377 428 429 430
b 378 426 427 428
b 379 424 425 426
b 380 419 448 449
b 381 419 449 450
b 382 391 392 424
b 383 391 423 424
b 384 391 422 423
b 385 389 419 420
b 386 361 362 392
b 387 359 389 390
b 388 331 332 362
b 389 329 359 360
b 390 301 302 332
b 391 299 329 330
b 392 271 272 302
b 393 269 299 300
b 394 241 242 272
b 395 239 269 270
b 396 211 212 242
b 397 209 239 240
b 398 181 182 212
b 399 179 209 210
b 400 151 152 182
b 401 149 179 180
b 402 121 122 152
b 403 119 149 150
b 404 91 92 122
b 405 89 119 120
b 406 61 62 92
b 407 59 89 90
b 408 31 32 62
b 409 27 29 60
b 410 27 59 60
b 411 27 28 29
b 412 25 26 27
b 413 23 24 25
b 414 21 22 23
b 415 19 20 21
b 416 17 18 19
b 417 15 16 17
b 418 13 14 15
b 419 11 12 13
b 420 9 10 11
b 421 7 8 9
b 422 5 6 7
b 423 3 4 5
1 409
2 384
3 4
4 15
5 412
5 410
5 6
6 7
7 407
7 279
8 279
9 386
9 382
9 10
10 11
11 379
11 341
12 279
13 341
14 340
15 423
15 16
16 422
16 17
17 421
17 18
18 420
18 19
19 419
19 20
20 22
20 21
21 418
21 417
22 251
22 23
23 250
23 24
24 249
24 25
25 26
26 27
27 28
28 29
29 248
29 30
30 408
30 31
31 32
32 33
33 34
34 35
35 36
36 247
36 37
37 246
37 38
38 39
39 40
40 41
41 42
42 43
43 44
44 406
44 45
45 46
46 47
47 48
48 49
49 50
50 51
51 52
52 53
53 54
54 245
54 55
55 56
56 57
57 58
58 59
59 60
60 61
61 62
62 63
63 64
64 65
65 66
66 67
67 68
68 69
69 244
69 70
70 71
71 72
72 73
73 74
74 75
75 76
76 77
77 78
78 79
79 80
80 81
81 82
82 83
83 84
84 85
85 86
86 243
86 87
87 88
88 89
89 90
90 91
91 92
92 93
93 94
94 95
95 96
96 97
97 98
98 99
99 100
100 101
101 242
101 102
102 241
102 103
103 104
104 105
105 106
106 107
107 108
108 109
109 110
110 111
111 112
112 113
113 114
114 115
115 116
116 117
117 118
118 119
119 120
120 121
121 122
122 123
123 124
124 125
125 126
126 127
127 128
128 129
129 130
130 131
131 395
131 132
132 133
133 134
134 240
134 135
135 136
136 137
137 138
138 139
139 140
140 141
141 142
142 143
143 393
143 144
144 146
144 145
146 239
146 147
147 238
147 148
148 237
148 149
149 152
149 151
149 150
152 391
152 153
153 236
153 154
154 235
154 155
155 234
155 156
156 389
156 157
157 159
157 158
159 233
159 160
160 232
160 161
161 163
161 162
163 231
163 164
164 230
164 165
165 380
165 166
166 228
166 229
166 167
167 170
167 168
168 369
168 368
168 169
170 171
171 172
172 173
173 174
174 176
174 175
176 178
176 177
178 180
178 179
180 182
180 181
182 224
182 183
183 223
183 184
184 186
184 185
186 222
186 187
187 189
187 188
189 217
189 190
190 216
190 191
191 194
191 193
191 192
194 200
194 195
195 199
195 196
195 197
197 373
197 372
197 198
200 205
200 201
201 204
201 203
201 202
205 215
205 206
206 290
206 207
207 210
207 209
207 208
210 214
210 211
210 212
212 213
213 404
213 402
217 219
217 220
217 218
220 371
220 370
220 221
224 227
224 226
224 225
231 387
231 385
242 399
242 397
251 284
251 252
252 283
252 253
253 254
253 255
255 256
255 257
257 261
257 258
258 259
258 260
261 282
261 262
262 263
262 264
264 266
264 265
266 281
266 267
267 268
267 269
268 403
268 401
269 270
269 272
270 271
272 280
272 273
273 274
273 276
274 275
276 277
276 278
277 414
277 413
278 405
278 279
282 416
282 415
284 285
284 286
287 299
287 298
287 291
288 290
289 352
289 353
289 291
290 292
291 292
292 294
293 296
293 297
293 295
293 294
299 304
299 300
300 302
300 303
300 301
304 309
304 305
304 310
305 307
305 306
305 308
310 311
310 312
312 313
312 318
313 314
313 317
313 315
315 375
315 374
315 316
318 351
318 319
319 320
319 321
321 322
321 350
321 323
323 349
323 324
324 348
324 325
325 347
325 326
326 346
326 327
326 328
328 344
328 329
329 330
329 331
331 343
331 332
332 333
332 335
333 334
334 392
334 390
335 342
335 336
336 337
336 338
336 339
339 378
339 340
340 341
341 388
344 377
344 376
344 345
353 354
353 358
354 355
354 356
354 357
358 367
358 359
359 360
359 361
361 366
361 362
361 364
362 363
363 400
363 398
364 365
365 396
365 394
380 381
382 383
383 384
409 411
409 410
